3	25
350	483	269	371	963	350	185	495	196	804	176	168	798	924	939	800	769	335	727	317	953	859	380	616	769	
911	801	957	605	985	502	436	648	655	984	11	391	570	603	990	74	779	268	615	431	600	823	314	90	567	
2435	2435	2435	
